c turning on binary mode checking
c parsing input formula with 202048 variables and 780990 clauses
c finished parsing, read 2449450 bytes from proof file
c detected empty clause; start verification via backward checking
c 5969 of 780990 clauses in core                            
c 2130 of 91584 lemmas in core using 66065 resolution steps
c 0 RAT lemmas in core; 342 redundant literals in core lemmas
s VERIFIED
c verification time: 1.127 seconds
